c WARNING: for repeatability, setting FPU to use double precision
d VARIABLES            226086       
d CONSTRAINTS          987038       
c ============================[ Problem Statistics ]=============================
c |                                                                             |
c |  Number of variables:        226086                                         |
c |  Number of clauses:          987038                                         |
c |  Parse time:                   0.14 s                                       |
c |                                                                             |
c ============================[ Search Statistics ]==============================
c | Conflicts |          ORIGINAL         |          LEARNT          | Progress |
c |           |    Vars  Clauses Literals |    Limit  Clauses Lit/Cl |          |
c ===============================================================================
c |       100 |  187369   887408  2149653 |   325382       98     23 | 17.125 % |
c |       250 |  187369   887408  2149653 |   357921      248     43 | 17.125 % |
c |       475 |  187369   887408  2149653 |   393713      473     64 | 17.125 % |
c |       812 |  187369   887408  2149653 |   433084      810     64 | 17.125 % |
c |      1318 |  187369   886998  2148669 |   476393     1311     76 | 17.125 % |
c |      2077 |  187369   886998  2148669 |   524032     2070     69 | 17.125 % |
c |      3216 |  187369   886998  2148669 |   576435     3209     67 | 17.125 % |
c |      4924 |  187369   886998  2148669 |   634079     4917     64 | 17.125 % |
c |      7486 |  187369   886998  2148669 |   697487     7479     65 | 17.125 % |
c |     11330 |  187369   886998  2148669 |   767235    11323     66 | 17.125 % |
c |     17096 |  187369   886998  2148669 |   843959    17089     67 | 17.125 % |
c |     25745 |  187369   886998  2148669 |   928355    25738     64 | 17.125 % |
c |     38719 |  187369   886998  2148669 |  1021191    38712     62 | 17.125 % |
c |     58180 |  187369   886998  2148669 |  1123310    58173     56 | 17.125 % |
c ===============================================================================
c restarts              : 251
c conflicts             : 78205          (2985 /sec)
c decisions             : 153389         (0.00 % random) (5854 /sec)
c propagations          : 126420011      (4824890 /sec)
c conflict literals     : 3974668        (48.09 % deleted)
d RESTARTS             251
d FAILURES             78205        
d NODES                153389       
d BACKTRACKS           153389       
d PROPAGATIONS         126420011    
d NOGOODSIZE           50.82 
d MEMORY               127.00 
d TIME                 26.2016 

s UNSATISFIABLE
